RT is False
Default write of storage_offers_DA.csv just to have a file (but constraint should be inactive)
Reading model...
...model read.
creating competitive generators file...
...competitive generators recorded.
Loading data...
.. day-ahead data with real-time VRE data read.
Compiling instance...
...instance created.
Creating Offer Mitigation (model will solve as dispatch if TRUE)...
Solving...

Welcome to IBM(R) ILOG(R) CPLEX(R) Interactive Optimizer 12.9.0.0
  with Simplex, Mixed Integer & Barrier Optimizers
5725-A06 5725-A29 5724-Y48 5724-Y49 5724-Y54 5724-Y55 5655-Y21
Copyright IBM Corp. 1988, 2019.  All Rights Reserved.

Type 'help' for a list of available commands.
Type 'help' followed by a command name for more
information on commands.

CPLEX> Logfile 'cplex.log' closed.
Logfile 'C:\Users\llavin\Desktop\test919\logs\tmpnp0x0or2.cplex.log' open.
CPLEX> New value for parallel optimization mode: -1
CPLEX> New value for mixed integer optimality gap tolerance: 0.01
CPLEX> New value for integrality tolerance: 1e-09
CPLEX> New value for feasibility tolerance: 0.01
CPLEX> New value for deterministic time limit in ticks: 75000
CPLEX> Problem 'C:\Users\llavin\Desktop\test919\logs\tmpwh9pk072.pyomo.lp' read.
Read time = 0.05 sec. (3.04 ticks)
CPLEX> Problem name         : C:\Users\llavin\Desktop\test919\logs\tmpwh9pk072.pyomo.lp
Objective sense      : Minimize
Variables            :   26081  [Nneg: 1,  Box: 21616,  Free: 4464]
Objective nonzeros   :    2496
Linear constraints   :   27515  [Less: 14006,  Greater: 4416,  Equal: 9093]
  Nonzeros           :   89267
  RHS nonzeros       :   12271

Variables            : Min LB: -5000.000        Max UB: 1000000.       
Objective nonzeros   : Min   : 15.73158         Max   : 124.0997       
Linear constraints   :
  Nonzeros           : Min   : 0.8500000        Max   : 3000.000       
  RHS nonzeros       : Min   : 0.4000000        Max   : 5000.000       
CPLEX> CPXPARAM_Parallel                                -1
CPXPARAM_Simplex_Tolerances_Feasibility          0.01
CPXPARAM_DetTimeLimit                            75000
CPXPARAM_MIP_Tolerances_MIPGap                   0.01
CPXPARAM_MIP_Tolerances_Integrality              1.0000000000000001e-09
Parallel mode: opportunistic, using up to 32 threads for concurrent optimization.
Tried aggregator 1 time.
LP Presolve eliminated 21353 rows and 15463 columns.
Aggregator did 770 substitutions.
Reduced LP has 5392 rows, 9848 columns, and 31812 nonzeros.
Presolve time = 0.05 sec. (30.44 ticks)
Symmetry aggregator did 5563 additional substitutions.

Iteration log . . .
Iteration:     1   Dual objective     =             0.000000
Perturbation started.
Iteration:   101   Dual objective     =             0.000000
Iteration:   331   Dual objective     =             1.128310
Iteration:   582   Dual objective     =             1.659323
Iteration:   841   Dual objective     =             1.799983
Iteration:  1043   Dual objective     =             1.912075
Iteration:  1309   Dual objective     =             1.956311
Iteration:  1564   Dual objective     =             1.988828
Iteration:  1791   Dual objective     =          1944.255296
Iteration:  1973   Dual objective     =         30454.007630
Iteration:  2153   Dual objective     =         59753.563849
Iteration:  2325   Dual objective     =         73428.836163
Iteration:  2589   Dual objective     =         79484.322493
Iteration:  3007   Dual objective     =         86842.218119
Removing perturbation.
Using devex.

Primal simplex solved model.


Primal simplex - Optimal:  Objective =  8.6868538584e+04
Solution time =    0.16 sec.  Iterations = 1512 (963)
Deterministic time = 78.89 ticks  (505.71 ticks/sec)

CPLEX> Solution written to file 'C:\Users\llavin\Desktop\test919\logs\tmpgksxm13r.cplex.sol'.
CPLEX> Exporting results... 
...storage offer mitigation file created
Converting model to MPEC...
...converted
NOTE: initial MIP solve with only storage competitive to get feasible solution
Solving...

Welcome to IBM(R) ILOG(R) CPLEX(R) Interactive Optimizer 12.9.0.0
  with Simplex, Mixed Integer & Barrier Optimizers
5725-A06 5725-A29 5724-Y48 5724-Y49 5724-Y54 5724-Y55 5655-Y21
Copyright IBM Corp. 1988, 2019.  All Rights Reserved.

Type 'help' for a list of available commands.
Type 'help' followed by a command name for more
information on commands.

CPLEX> Logfile 'cplex.log' closed.
Logfile 'C:\Users\llavin\Desktop\test919\logs\tmp23e2yl9d.cplex.log' open.
CPLEX> New value for parallel optimization mode: -1
CPLEX> New value for mixed integer optimality gap tolerance: 0.01
CPLEX> New value for integrality tolerance: 1e-09
CPLEX> New value for feasibility tolerance: 0.01
CPLEX> New value for deterministic time limit in ticks: 75000
CPLEX> Problem 'C:\Users\llavin\Desktop\test919\logs\tmp29rmg89c.pyomo.lp' read.
Read time = 0.23 sec. (14.78 ticks)
CPLEX> Problem name         : C:\Users\llavin\Desktop\test919\logs\tmp29rmg89c.pyomo.lp
Objective sense      : Maximize
Variables            :   53805  [Nneg: 1,  Box: 22000,  Free: 4464,
                                 Binary: 27340]
Objective nonzeros   :    8980
Linear constraints   :  123205  [Less: 41346,  Greater: 59096,  Equal: 22763]
  Nonzeros           :  291801
  RHS nonzeros       :   67438

Variables            : Min LB: -5000.000        Max UB: 1000000.       
Objective nonzeros   : Min   : 0.4000000        Max   : 802.0000       
Linear constraints   :
  Nonzeros           : Min   : 0.4000000        Max   : 1000000.       
  RHS nonzeros       : Min   : 0.4000000        Max   : 1000000.       
CPLEX> CPXPARAM_Parallel                                -1
CPXPARAM_Simplex_Tolerances_Feasibility          0.01
CPXPARAM_DetTimeLimit                            75000
CPXPARAM_MIP_Tolerances_MIPGap                   0.01
CPXPARAM_MIP_Tolerances_Integrality              1.0000000000000001e-09
Tried aggregator 3 times.
MIP Presolve eliminated 88630 rows and 18930 columns.
MIP Presolve added 3380 rows and 0 columns.
MIP Presolve modified 24889 coefficients.
Aggregator did 13001 substitutions.
Reduced MIP has 24954 rows, 21318 columns, and 71193 nonzeros.
Reduced MIP has 8413 binaries, 0 generals, 0 SOSs, and 0 indicators.
Presolve time = 0.30 sec. (176.51 ticks)
Probing fixed 383 vars, tightened 2784 bounds.
Probing time = 1.14 sec. (845.32 ticks)
Tried aggregator 2 times.
MIP Presolve eliminated 874 rows and 776 columns.
MIP Presolve modified 2192 coefficients.
Aggregator did 34 substitutions.
Reduced MIP has 24046 rows, 20508 columns, and 68557 nonzeros.
Reduced MIP has 8026 binaries, 0 generals, 0 SOSs, and 0 indicators.
Presolve time = 0.11 sec. (69.23 ticks)
Probing time = 0.03 sec. (15.37 ticks)
Clique table members: 6363.
MIP emphasis: balance optimality and feasibility.
MIP search method: dynamic search.
Parallel mode: opportunistic, using up to 32 threads.
Root relaxation solution time = 0.48 sec. (571.17 ticks)

        Nodes                                         Cuts/
   Node  Left     Objective  IInf  Best Integer    Best Bound    ItCnt     Gap

      0     0     7069.7418   732                   7069.7418     6499         
      0     0     7069.7418    36                    Cuts: 39     6518         
      0     0     7069.7418    34                    Cuts: 11     6523         
      0     0     7069.7418    34                     Cuts: 3     6523         
      0     3     6854.6054    33                     Cuts: 2     6526         
Elapsed time = 8.73 sec. (5792.85 ticks, tree = 0.02 MB, solutions = 0)
    645   459     6166.5173    15                   6960.7390    14222         
*   985   674      integral     0     6704.8432     6960.7390    15750    3.82%
   1172   703     6462.8485    14     6716.1637     6960.7390    15918    3.64%
   1878   129     6897.8968    12     6869.6880     6960.7390    19702    1.33%
   2214   270        cutoff           6869.6880     6960.7390    20445    1.33%
   2298   288        cutoff           6886.5763     6960.7390    22078    1.08%
   2308   287        cutoff           6886.5763     6960.7376    32613    1.08%

Implied bound cuts applied:  3
Flow cuts applied:  15
Mixed integer rounding cuts applied:  1
Gomory fractional cuts applied:  9

Root node processing (before b&c):
  Real time             =    7.48 sec. (5765.65 ticks)
Parallel b&c, 32 threads:
  Real time             =    7.02 sec. (1551.26 ticks)
  Sync time (average)   =    1.54 sec.
  Wait time (average)   =    0.00 sec.
                          ------------
Total (root+branch&cut) =   14.50 sec. (7316.91 ticks)

Solution pool: 14 solutions saved.

MIP - Integer optimal, tolerance (0.01/1e-06):  Objective =  6.8865762991e+03
Current MIP best bound =  6.9494179198e+03 (gap = 62.8416, 0.91%)
Solution time =   14.53 sec.  Iterations = 32620  Nodes = 2312 (286)
Deterministic time = 7317.07 ticks  (503.55 ticks/sec)

CPLEX> Incumbent solution written to file 'C:\Users\llavin\Desktop\test919\logs\tmpb4o9jd8c.cplex.sol'.
CPLEX> NOTE: no warmstart specified for MIP iteration, default behavior is true
NOTE: resolving with all competitive generators using storage-only solution to warmstart
Solving...

Welcome to IBM(R) ILOG(R) CPLEX(R) Interactive Optimizer 12.9.0.0
  with Simplex, Mixed Integer & Barrier Optimizers
5725-A06 5725-A29 5724-Y48 5724-Y49 5724-Y54 5724-Y55 5655-Y21
Copyright IBM Corp. 1988, 2019.  All Rights Reserved.

Type 'help' for a list of available commands.
Type 'help' followed by a command name for more
information on commands.

CPLEX> Logfile 'cplex.log' closed.
Logfile 'C:\Users\llavin\Desktop\test919\logs\tmp8cu_9y4d.cplex.log' open.
CPLEX> New value for parallel optimization mode: -1
CPLEX> New value for mixed integer optimality gap tolerance: 0.01
CPLEX> New value for integrality tolerance: 1e-09
CPLEX> New value for feasibility tolerance: 0.01
CPLEX> New value for deterministic time limit in ticks: 75000
CPLEX> Problem 'C:\Users\llavin\Desktop\test919\logs\tmp_hktqqt5.pyomo.lp' read.
Read time = 0.25 sec. (14.81 ticks)
CPLEX> MIP start file 'C:\Users\llavin\Desktop\test919\logs\tmpnlfezdb9.cplex.mst' read.
CPLEX> Problem name         : C:\Users\llavin\Desktop\test919\logs\tmp_hktqqt5.pyomo.lp
Objective sense      : Maximize
Variables            :   54525  [Nneg: 1,  Box: 22720,  Free: 4464,
                                 Binary: 27340]
Objective nonzeros   :    9676
Linear constraints   :  123205  [Less: 41346,  Greater: 59096,  Equal: 22763]
  Nonzeros           :  291801
  RHS nonzeros       :   67438

Variables            : Min LB: -5000.000        Max UB: 1000000.       
Objective nonzeros   : Min   : 0.4000000        Max   : 722.0000       
Linear constraints   :
  Nonzeros           : Min   : 0.4000000        Max   : 1000000.       
  RHS nonzeros       : Min   : 0.4000000        Max   : 1000000.       
CPLEX> CPXPARAM_Parallel                                -1
CPXPARAM_Simplex_Tolerances_Feasibility          0.01
CPXPARAM_DetTimeLimit                            75000
CPXPARAM_MIP_Tolerances_MIPGap                   0.01
CPXPARAM_MIP_Tolerances_Integrality              1.0000000000000001e-09
Warning:  No solution found from 1 MIP starts.
Retaining values of one MIP start for possible repair.
Tried aggregator 3 times.
MIP Presolve eliminated 88630 rows and 19650 columns.
MIP Presolve added 3380 rows and 0 columns.
MIP Presolve modified 24889 coefficients.
Aggregator did 13001 substitutions.
Reduced MIP has 24954 rows, 21318 columns, and 71193 nonzeros.
Reduced MIP has 8413 binaries, 0 generals, 0 SOSs, and 0 indicators.
Presolve time = 0.30 sec. (176.88 ticks)
Probing fixed 383 vars, tightened 2784 bounds.
Probing time = 1.14 sec. (845.32 ticks)
Tried aggregator 2 times.
MIP Presolve eliminated 874 rows and 776 columns.
MIP Presolve modified 2192 coefficients.
Aggregator did 34 substitutions.
Reduced MIP has 24046 rows, 20508 columns, and 68557 nonzeros.
Reduced MIP has 8026 binaries, 0 generals, 0 SOSs, and 0 indicators.
Presolve time = 0.11 sec. (69.23 ticks)
Probing time = 0.05 sec. (15.37 ticks)
Clique table members: 6363.
MIP emphasis: balance optimality and feasibility.
MIP search method: dynamic search.
Parallel mode: opportunistic, using up to 32 threads.
Root relaxation solution time = 0.44 sec. (313.58 ticks)

        Nodes                                         Cuts/
   Node  Left     Objective  IInf  Best Integer    Best Bound    ItCnt     Gap

      0     0   118902.3551  1898                 118902.3551     6746         
      0     0   115104.4788   741                   Cuts: 620     7082         
      0     0   114688.9043   633                   Cuts: 305     7238         
      0     0   114581.4906   620                   Cuts: 164     7358         
      0     0   114566.2619   598                    Cuts: 91     7400         
      0     0   114566.2619   582                    Cuts: 87     7429         
      0     0   114566.2619   578                    Cuts: 53     7440         
      0     0   114566.2619   568                    Cuts: 57     7453         
      0     0   114566.2619   567                    Cuts: 51     7460         
Repair heuristic found nothing.
      0    17    infeasible                          Cuts: 25     7645         
Elapsed time = 10.97 sec. (6732.12 ticks, tree = 0.02 MB, solutions = 0)
    210    60    87664.3212   481                 112200.1322     8539         
    608   421    91455.7088   476                 111494.5670    14506         
   1118   632    77504.5996   435                 111494.5670    17191         
   1717  1194    64526.9049   457                 111494.5670    27057         
   2318  1544    48615.9822   396                 111494.5670    32103         
   2975  2011    40772.4254   390                 111494.5670    37136         
   3709  3151    34534.8683   370                 111494.5670    45504         
   4649  3110    28347.2837   399                 111494.5670    45319         
   5637  3337    48251.7934   371                 111494.5670    46163         
   9964  8061    47019.3347   308                 111494.5670    51742         
Elapsed time = 28.72 sec. (9832.84 ticks, tree = 71.16 MB, solutions = 0)
* 11501+ 3076                        49527.7390   111494.5670           125.12%
* 13971 10159      integral     0    52502.8410   111494.5670    54819  112.36%
* 14594  3153      integral     0    52808.4996   111494.5670    55980  111.13%
* 14601  3324      integral     0    54383.8654   111494.5670    55921  105.01%
  14602  2383    infeasible          54383.8654    86617.4109    73934   59.27%
  15793   164    infeasible          54383.8654    86545.8606    76867   59.14%
  16631  1394    62040.6302   135    54383.8654    86545.8606   105181   59.14%
  18499  2492    64617.7659   100    54383.8654    86545.8606   121323   59.14%
  20999  3996    58311.8647    70    54383.8654    86545.8606   137369   59.14%
  23376  5422    58311.6412    61    56969.3633    86214.4781   167145   51.33%
Elapsed time = 76.52 sec. (23854.06 ticks, tree = 43.76 MB, solutions = 13)
  25762  5472        cutoff          56969.3633    86214.4781   167527   51.33%
  28249  7001    58726.9117    64    56969.3633    84423.3569   182697   48.19%
  30772  9509        cutoff          56969.3633    82771.3621   217226   45.29%
  33046 11002    57832.2666    80    56969.3633    79428.5378   232988   39.42%
  34496 14705    59348.0585    65    56969.3633    78939.2479   281693   38.56%
  35457 15064    63996.4924    79    56969.3633    77461.4671   288454   35.97%
  37463 15624    57827.6013   128    56969.3633    76756.2905   296968   34.73%
  40069 17284    64673.5939   128    56969.3633    75971.8745   316366   33.36%
  42789 19343    64079.2788   136    56969.3633    74286.3237   340177   30.40%
  45384 19444    61901.6848    67    56969.3633    73748.0786   340183   29.45%
Elapsed time = 129.83 sec. (33396.61 ticks, tree = 174.40 MB, solutions = 13)
  47841 20022    61435.9971    93    56969.3633    72610.5706   346291   27.46%
  50282 23439    58607.8141    63    56969.3633    72031.7622   381838   26.44%
  52838 29321    64388.9772    95    56969.3633    70786.2413   441596   24.25%
  55562 29583    64778.6302    97    56969.3633    70374.7647   443602   23.53%
  58366 31409    62634.4477   107    56969.3633    69960.2840   461442   22.80%
  60900 32005    61273.1411    63    56969.3633    69878.6471   467592   22.66%
  62806 32929    58119.2637    54    56969.3633    69877.2120   475453   22.66%
  64186 33903    64332.6795   141    56969.3633    69716.6503   483510   22.38%
  65710 37568    61577.5100    82    56969.3633    69586.3101   516510   22.15%
  67677 38330    69241.7805    93    57233.3061    69500.2954   523929   21.43%
Elapsed time = 182.42 sec. (42938.60 ticks, tree = 355.09 MB, solutions = 14)
  69951 40061    67884.1110    76    57233.3061    69474.9636   539167   21.39%
  72465 39057    62622.0364    58    57233.3061    69295.1608   546402   21.07%
  74939 42328    58725.2985    61    57233.3061    69295.1608   574451   21.07%
  77433 45490    58540.2553    79    57233.3061    69250.7065   599998   21.00%
  79918 43485    69072.6841    85    57233.3061    69250.7065   584750   21.00%
  82357 46523    63649.4543    65    57233.3061    69250.7065   609192   21.00%
  84812 52633    57497.1379    20    57233.3061    69175.7026   655367   20.87%
  87104 48814    59705.2096    78    57233.3061    69175.7026   625517   20.87%
  89340 52063    60736.6190    56    57233.3061    69163.4110   651168   20.84%
  91197 53501    61390.0708    66    57233.3061    69145.2192   662251   20.81%
Elapsed time = 231.92 sec. (52480.09 ticks, tree = 510.68 MB, solutions = 14)
  92787 55748    57494.5215    62    57233.3061    69111.8442   678813   20.75%
  94406 55104    57526.6309    71    57233.3061    69111.8442   674269   20.75%
  96376 55536    infeasible          57233.3061    69078.9299   677353   20.70%
  98772 55396    57540.1918    74    57233.3061    69076.4752   677221   20.69%
 101284 55229    60788.8299    65    57233.3061    69076.4752   675547   20.69%
 103836 62605    63324.0309    61    57233.3061    69076.4752   735368   20.69%
 106471 56391    62524.2075    64    57233.3061    69076.4752   684627   20.69%
 108924 60871    59545.7823    68    57233.3061    69076.4752   720017   20.69%
 111379 62261        cutoff          57233.3061    69076.4752   732746   20.69%
 113661 63084    63439.7635    53    57233.3061    69076.4752   740416   20.69%
Elapsed time = 279.45 sec. (62020.53 ticks, tree = 602.98 MB, solutions = 14)
 115831 57946    62549.4403    93    57233.3061    69076.4752   695364   20.69%
 117890 59193    61774.8813    87    57233.3061    69076.4752   705228   20.69%
 119907 60622    60770.3723    63    57233.3061    69076.4752   718166   20.69%
 121759 62132        cutoff          57233.3061    69076.4752   731356   20.69%
 123665 60133        cutoff          57233.3061    69076.4752   712367   20.69%
 125311 62592    57833.8573    60    57233.3061    69076.4752   736022   20.69%
 127060 61841    63328.1605    98    57233.3061    69076.4752   729033   20.69%
 128832 63726    61298.2900    74    57233.3061    69076.4752   744922   20.69%
 130454 65256    62384.2016    99    57233.3061    69076.4752   758988   20.69%
 132063 63887    61954.3637   110    57233.3061    69076.4752   746049   20.69%
Elapsed time = 304.19 sec. (71563.15 ticks, tree = 610.74 MB, solutions = 14)
 133206 62243    60502.8292   108    57233.3061    69076.4752   730776   20.69%
 133918 65022    62550.3483    63    57233.3061    69076.4752   756524   20.69%
 134339 65586    57354.0173    41    57233.3061    69076.4752   761053   20.69%

GUB cover cuts applied:  1
Clique cuts applied:  16
Cover cuts applied:  33
Implied bound cuts applied:  47
Flow cuts applied:  1825
Mixed integer rounding cuts applied:  1431
Zero-half cuts applied:  1
Gomory fractional cuts applied:  113

Root node processing (before b&c):
  Real time             =    9.30 sec. (6715.34 ticks)
Parallel b&c, 32 threads:
  Real time             =  297.64 sec. (68316.52 ticks)
  Sync time (average)   =    1.80 sec.
  Wait time (average)   =    0.28 sec.
                          ------------
Total (root+branch&cut) =  306.94 sec. (75031.85 ticks)

Solution pool: 14 solutions saved.

MIP - Deterministic time limit exceeded, integer feasible:  Objective =  5.7233306054e+04
Current MIP best bound =  6.9014147839e+04 (gap = 11780.8, 20.58%)
Solution time =  306.98 sec.  Iterations = 1006375  Nodes = 134492 (93812)
Deterministic time = 75032.01 ticks  (244.42 ticks/sec)

CPLEX> Incumbent solution written to file 'C:\Users\llavin\Desktop\test919\logs\tmpcgla5ci6.cplex.sol'.
CPLEX> Exporting results... 
